c description: Random 3-CNF over 19 variables and 81 clauses
c generator: CNFgen (0.9.2)
c copyright: (C) 2012-2022 Massimo Lauria <massimo.lauria@uniroma1.it>
c url: https://massimolauria.net/cnfgen
c command line: cnfgen --output CNF_4.28/19_bit_81_960.cnf randkcnf 3 19 81
c
p cnf 19 81
3 17 19 0
-5 11 18 0
-3 11 -14 0
-8 -11 -16 0
3 -10 -18 0
9 -13 -17 0
-7 12 14 0
1 -15 -16 0
-13 -17 18 0
-3 -16 18 0
-7 10 -18 0
5 8 19 0
6 -13 16 0
-3 12 17 0
2 -5 11 0
-6 -16 -18 0
3 -8 14 0
6 -13 17 0
-6 -17 -18 0
4 15 -19 0
-10 -12 -16 0
9 -16 18 0
2 12 16 0
-8 16 -18 0
9 -17 19 0
-6 7 14 0
4 8 -17 0
2 -10 17 0
-8 14 15 0
10 -14 -16 0
-8 11 12 0
1 5 9 0
-2 3 4 0
-3 -7 10 0
-2 -8 10 0
9 13 18 0
-1 -3 -18 0
-3 -11 -14 0
14 -16 17 0
-1 -13 -19 0
-6 11 14 0
-8 12 13 0
3 -7 8 0
2 13 19 0
-2 3 19 0
3 -4 15 0
-2 10 12 0
1 4 -16 0
5 12 13 0
7 8 16 0
-5 7 14 0
6 -7 -12 0
-7 14 -16 0
-11 12 -15 0
4 9 -16 0
-12 14 -16 0
9 -12 -18 0
-9 -16 -18 0
-3 -6 -18 0
7 -12 -19 0
4 5 -7 0
-2 3 8 0
-1 -2 -7 0
-12 16 18 0
-4 6 -7 0
-3 9 -11 0
3 -11 19 0
-7 11 -19 0
4 -8 -16 0
-10 13 -19 0
6 10 -16 0
1 -13 -17 0
-9 14 19 0
2 -4 13 0
6 -13 -16 0
-1 8 -13 0
3 -9 -10 0
2 4 12 0
-6 18 -19 0
-2 -4 12 0
12 -16 -17 0
